QBPP_HJ-_30_025_10_2
30 165 269
5 44 41 44 28 39 34 21 49 11 47 41 10 8 8 28 46 17 32 10 33 2 24 16 16 34 29 20 40 47
     0     0     0     0   -18     0     0     0   -34   -90   -83     0   -37   -23     0    -4   -19     0     0     0     0   -95     0     0     0     0     0     0     0     0
     0     0     0     0     0   -46     0     0   -86     0   -91   -66   -72     0     0   -60     0     0     0     0     0   -60   -74     0   -38   -87     0     0     0     0
     0     0     0     0     0     0     0     0     0   -52   -98     0     0     0   -21   -54     0     0     0     0     0   -46     0     0     0     0   -98     0     0     0
     0     0     0     0   -69   -39     0     0     0     0     0     0    -3     0   -94     0   -68   -45   -67     0     0     0     0   -24     0   -95   -11     0     0     0
   -18     0     0   -69     0     0     0     0     0  -100   -53   -90     0     0     0   -74     0     0   -93     0     0  -100     0     0     0     0     0     0     0     0
     0   -46     0   -39     0     0     0   -18     0     0     0     0     0     0     0     0     0     0     0     0   -38     0     0     0     0     0     0     0     0     0
     0     0     0     0     0     0     0     0     0     0   -16     0     0     0     0     0     0     0     0   -66     0     0     0     0     0   -89   -57     0   -99     0
     0     0     0     0     0   -18     0     0    -1     0     0     0     0    -8     0   -24     0     0     0     0     0     0     0     0     0   -58   -39     0   -22   -39
   -34   -86     0     0     0     0     0    -1     0     0   -10     0     0     0     0    -1   -51     0     0     0     0     0     0     0     0     0     0     0     0     0
   -90     0   -52     0  -100     0     0     0     0     0     0     0   -50     0     0     0     0  -100     0   -39     0     0     0     0     0   -61     0   -92     0   -82
   -83   -91   -98     0   -53     0   -16     0   -10     0     0     0     0     0     0     0     0     0     0   -66     0     0     0     0     0     0   -60     0     0     0
     0   -66     0     0   -90     0     0     0     0     0     0     0   -28     0     0     0     0     0     0   -49     0     0   -46     0   -40     0   -36     0     0   -62
   -37   -72     0    -3     0     0     0     0     0   -50     0   -28     0     0     0     0   -28     0     0   -91     0     0     0     0     0     0     0     0     0   -40
   -23     0     0     0     0     0     0    -8     0     0     0     0     0     0     0     0     0     0     0     0     0     0   -16     0   -53     0     0     0     0     0
     0     0   -21   -94     0     0     0     0     0     0     0     0     0     0     0   -96     0     0     0     0     0   -46     0     0    -2   -42   -39     0     0     0
    -4   -60   -54     0   -74     0     0   -24    -1     0     0     0     0     0   -96     0   -16     0   -42     0     0     0     0   -45     0   -58   -19     0     0     0
   -19     0     0   -68     0     0     0     0   -51     0     0     0   -28     0     0   -16     0   -44     0     0     0     0   -98     0     0     0   -69     0     0     0
     0     0     0   -45     0     0     0     0     0  -100     0     0     0     0     0     0   -44     0     0     0     0     0    -6     0     0   -26     0     0   -75     0
     0     0     0   -67   -93     0     0     0     0     0     0     0     0     0     0   -42     0     0     0     0     0     0     0   -78     0     0   -76     0     0   -90
     0     0     0     0     0     0   -66     0     0   -39   -66   -49   -91     0     0     0     0     0     0     0     0     0     0     0    -5     0     0     0     0     0
     0     0     0     0     0   -38     0     0     0     0     0     0     0     0     0     0     0     0     0     0     0     0     0     0     0     0     0     0     0     0
   -95   -60   -46     0  -100     0     0     0     0     0     0     0     0     0   -46     0     0     0     0     0     0     0     0     0     0     0     0     0     0     0
     0   -74     0     0     0     0     0     0     0     0     0   -46     0   -16     0     0   -98    -6     0     0     0     0     0    -3     0     0     0     0   -88   -52
     0     0     0   -24     0     0     0     0     0     0     0     0     0     0     0   -45     0     0   -78     0     0     0    -3     0     0     0     0    -7     0     0
     0   -38     0     0     0     0     0     0     0     0     0   -40     0   -53    -2     0     0     0     0    -5     0     0     0     0     0     0   -90     0   -85     0
     0   -87     0   -95     0     0   -89   -58     0   -61     0     0     0     0   -42   -58     0   -26     0     0     0     0     0     0     0     0     0   -44     0     0
     0     0   -98   -11     0     0   -57   -39     0     0   -60   -36     0     0   -39   -19   -69     0   -76     0     0     0     0     0   -90     0     0   -85     0     0
     0     0     0     0     0     0     0     0     0   -92     0     0     0     0     0     0     0     0     0     0     0     0     0    -7     0   -44   -85     0   -60     0
     0     0     0     0     0     0   -99   -22     0     0     0     0     0     0     0     0     0   -75     0     0     0     0   -88     0   -85     0     0   -60     0     0
     0     0     0     0     0     0     0   -39     0   -82     0   -62   -40     0     0     0     0     0   -90     0     0     0   -52     0     0     0     0     0     0     0
